\ LP format - for model browsing. Use MPS format to capture full model detail.
Minimize
  C
Subject To
 inicio_maquina(m1,t1): f(1,0) + x(2,1,0) = 1
 inicio_maquina(m2,t1): f(2,0) = 1
 inicio_maquina(m3,t1): x(1,3,0) + x(3,3,0) + f(3,0) = 1
 fluxo_maquina(1,1): f(1,0) - f(1,1) - x(2,1,1) = 0
 fluxo_maquina(1,2): x(2,1,0) + f(1,1) - f(1,2) - x(2,1,2) = 0
 fluxo_maquina(1,3): x(2,1,1) + f(1,2) - f(1,3) - x(2,1,3) = 0
 fluxo_maquina(1,4): x(2,1,2) + f(1,3) - f(1,4) - x(2,1,4) = 0
 fluxo_maquina(1,5): x(2,1,3) + f(1,4) - f(1,5) - x(2,1,5) = 0
 fluxo_maquina(1,6): x(2,1,4) + f(1,5) - f(1,6) - x(2,1,6) = 0
 fluxo_maquina(1,7): x(2,1,5) + f(1,6) - f(1,7) - x(2,1,7) = 0
 fluxo_maquina(1,8): x(2,1,6) + f(1,7) - f(1,8) - x(2,1,8) = 0
 fluxo_maquina(1,9): x(2,1,7) + f(1,8) - f(1,9) - x(2,1,9) - x(1,1,9) = 0
 fluxo_maquina(1,10): x(2,1,8) + f(1,9) - f(1,10) - x(2,1,10) - x(1,1,10)
   = 0
 fluxo_maquina(1,11): x(2,1,9) + f(1,10) - f(1,11) - x(2,1,11) - x(1,1,11)
   = 0
 fluxo_maquina(1,12): x(2,1,10) + f(1,11) - f(1,12) - x(2,1,12) - x(1,1,12)
   - x(3,1,12) = 0
 fluxo_maquina(1,13): x(2,1,11) + f(1,12) - f(1,13) - x(2,1,13) - x(1,1,13)
   - x(3,1,13) = 0
 fluxo_maquina(1,14): x(2,1,12) + f(1,13) - f(1,14) - x(2,1,14) - x(1,1,14)
   - x(3,1,14) = 0
 fluxo_maquina(1,15): x(2,1,13) + f(1,14) - f(1,15) - x(2,1,15) - x(1,1,15)
   - x(3,1,15) = 0
 fluxo_maquina(1,16): x(2,1,14) + f(1,15) - f(1,16) - x(2,1,16) - x(1,1,16)
   - x(3,1,16) = 0
 fluxo_maquina(1,17): x(2,1,15) + f(1,16) - f(1,17) - x(2,1,17) + x(1,1,9)
   - x(1,1,17) - x(3,1,17) = 0
 fluxo_maquina(1,18): x(2,1,16) + f(1,17) - f(1,18) - x(2,1,18) + x(1,1,10)
   - x(1,1,18) - x(3,1,18) = 0
 fluxo_maquina(1,19): x(2,1,17) + f(1,18) - f(1,19) - x(2,1,19) + x(1,1,11)
   - x(1,1,19) - x(3,1,19) = 0
 fluxo_maquina(1,20): x(2,1,18) + f(1,19) - f(1,20) - x(2,1,20) + x(1,1,12)
   - x(1,1,20) - x(3,1,20) = 0
 fluxo_maquina(1,21): x(2,1,19) + f(1,20) - f(1,21) + x(1,1,13) - x(1,1,21)
   - x(3,1,21) = 0
 fluxo_maquina(1,22): x(2,1,20) + f(1,21) - f(1,22) + x(3,1,12) + x(1,1,14)
   - x(1,1,22) - x(3,1,22) = 0
 fluxo_maquina(1,23): f(1,22) - f(1,23) + x(3,1,13) + x(1,1,15) - x(1,1,23)
   - x(3,1,23) = 0
 fluxo_maquina(1,24): f(1,23) - f(1,24) + x(3,1,14) + x(1,1,16) - x(1,1,24)
   - x(3,1,24) = 0
 fluxo_maquina(1,25): f(1,24) - f(1,25) + x(3,1,15) + x(1,1,17) - x(1,1,25)
   - x(3,1,25) = 0
 fluxo_maquina(1,26): f(1,25) - f(1,26) + x(3,1,16) + x(1,1,18) - x(1,1,26)
   - x(3,1,26) = 0
 fluxo_maquina(1,27): f(1,26) - f(1,27) + x(3,1,17) + x(1,1,19) - x(1,1,27)
   - x(3,1,27) = 0
 fluxo_maquina(1,28): f(1,27) - f(1,28) + x(3,1,18) + x(1,1,20) - x(1,1,28)
   - x(3,1,28) = 0
 fluxo_maquina(1,29): f(1,28) - f(1,29) + x(3,1,19) + x(1,1,21) - x(1,1,29)
   - x(3,1,29) = 0
 fluxo_maquina(1,30): f(1,29) - f(1,30) + x(3,1,20) + x(1,1,22) - x(1,1,30)
   - x(3,1,30) = 0
 fluxo_maquina(1,31): f(1,30) - f(1,31) + x(3,1,21) + x(1,1,23) - x(1,1,31)
   = 0
 fluxo_maquina(1,32): f(1,31) - f(1,32) + x(3,1,22) + x(1,1,24) - x(1,1,32)
   = 0
 fluxo_maquina(1,33): f(1,32) - f(1,33) + x(3,1,23) + x(1,1,25) = 0
 fluxo_maquina(1,34): f(1,33) - f(1,34) + x(3,1,24) + x(1,1,26) = 0
 fluxo_maquina(1,35): f(1,34) - f(1,35) + x(3,1,25) + x(1,1,27) = 0
 fluxo_maquina(1,36): f(1,35) - f(1,36) + x(3,1,26) + x(1,1,28) = 0
 fluxo_maquina(1,37): f(1,36) - f(1,37) + x(3,1,27) + x(1,1,29) = 0
 fluxo_maquina(1,38): f(1,37) - f(1,38) + x(3,1,28) + x(1,1,30) = 0
 fluxo_maquina(1,39): f(1,38) - f(1,39) + x(3,1,29) + x(1,1,31) = 0
 fluxo_maquina(1,40): f(1,39) - f(1,40) + x(3,1,30) + x(1,1,32) = 0
 fluxo_maquina(2,1): f(2,0) - f(2,1) = 0
 fluxo_maquina(2,2): f(2,1) - f(2,2) - x(2,2,2) = 0
 fluxo_maquina(2,3): f(2,2) - f(2,3) - x(2,2,3) = 0
 fluxo_maquina(2,4): f(2,3) - f(2,4) - x(2,2,4) = 0
 fluxo_maquina(2,5): f(2,4) - f(2,5) - x(1,2,5) - x(2,2,5) = 0
 fluxo_maquina(2,6): f(2,5) - f(2,6) - x(1,2,6) - x(2,2,6) = 0
 fluxo_maquina(2,7): f(2,6) - f(2,7) - x(1,2,7) - x(2,2,7) - x(3,2,7) = 0
 fluxo_maquina(2,8): f(2,7) - f(2,8) - x(1,2,8) - x(2,2,8) - x(3,2,8) = 0
 fluxo_maquina(2,9): x(1,2,5) + f(2,8) - f(2,9) - x(1,2,9) - x(2,2,9)
   - x(3,2,9) = 0
 fluxo_maquina(2,10): x(1,2,6) + f(2,9) - f(2,10) - x(1,2,10) - x(2,2,10)
   - x(3,2,10) = 0
 fluxo_maquina(2,11): x(1,2,7) + f(2,10) - f(2,11) - x(1,2,11) - x(2,2,11)
   - x(3,2,11) = 0
 fluxo_maquina(2,12): x(2,2,2) + x(3,2,7) + x(1,2,8) + f(2,11) - f(2,12)
   - x(1,2,12) - x(2,2,12) - x(3,2,12) = 0
 fluxo_maquina(2,13): x(2,2,3) + x(3,2,8) + x(1,2,9) + f(2,12) - f(2,13)
   - x(1,2,13) - x(2,2,13) - x(3,2,13) = 0
 fluxo_maquina(2,14): x(2,2,4) + x(3,2,9) + x(1,2,10) + f(2,13) - f(2,14)
   - x(1,2,14) - x(2,2,14) - x(3,2,14) = 0
 fluxo_maquina(2,15): x(2,2,5) + x(3,2,10) + x(1,2,11) + f(2,14) - f(2,15)
   - x(1,2,15) - x(2,2,15) - x(3,2,15) = 0
 fluxo_maquina(2,16): x(2,2,6) + x(3,2,11) + x(1,2,12) + f(2,15) - f(2,16)
   - x(1,2,16) - x(2,2,16) - x(3,2,16) = 0
 fluxo_maquina(2,17): x(2,2,7) + x(3,2,12) + x(1,2,13) + f(2,16) - f(2,17)
   - x(1,2,17) - x(2,2,17) - x(3,2,17) = 0
 fluxo_maquina(2,18): x(2,2,8) + x(3,2,13) + x(1,2,14) + f(2,17) - f(2,18)
   - x(1,2,18) - x(2,2,18) - x(3,2,18) = 0
 fluxo_maquina(2,19): x(2,2,9) + x(3,2,14) + x(1,2,15) + f(2,18) - f(2,19)
   - x(1,2,19) - x(2,2,19) - x(3,2,19) = 0
 fluxo_maquina(2,20): x(2,2,10) + x(3,2,15) + x(1,2,16) + f(2,19) - f(2,20)
   - x(1,2,20) - x(2,2,20) - x(3,2,20) = 0
 fluxo_maquina(2,21): x(2,2,11) + x(3,2,16) + x(1,2,17) + f(2,20) - f(2,21)
   - x(1,2,21) - x(2,2,21) - x(3,2,21) = 0
 fluxo_maquina(2,22): x(2,2,12) + x(3,2,17) + x(1,2,18) + f(2,21) - f(2,22)
   - x(1,2,22) - x(2,2,22) - x(3,2,22) = 0
 fluxo_maquina(2,23): x(2,2,13) + x(3,2,18) + x(1,2,19) + f(2,22) - f(2,23)
   - x(1,2,23) - x(3,2,23) = 0
 fluxo_maquina(2,24): x(2,2,14) + x(3,2,19) + x(1,2,20) + f(2,23) - f(2,24)
   - x(1,2,24) - x(3,2,24) = 0
 fluxo_maquina(2,25): x(2,2,15) + x(3,2,20) + x(1,2,21) + f(2,24) - f(2,25)
   - x(1,2,25) - x(3,2,25) = 0
 fluxo_maquina(2,26): x(2,2,16) + x(3,2,21) + x(1,2,22) + f(2,25) - f(2,26)
   - x(1,2,26) = 0
 fluxo_maquina(2,27): x(2,2,17) + x(3,2,22) + x(1,2,23) + f(2,26) - f(2,27)
   - x(1,2,27) = 0
 fluxo_maquina(2,28): x(2,2,18) + x(3,2,23) + x(1,2,24) + f(2,27) - f(2,28)
   - x(1,2,28) = 0
 fluxo_maquina(2,29): x(2,2,19) + x(3,2,24) + x(1,2,25) + f(2,28) - f(2,29)
   = 0
 fluxo_maquina(2,30): x(2,2,20) + x(3,2,25) + x(1,2,26) + f(2,29) - f(2,30)
   = 0
 fluxo_maquina(2,31): x(2,2,21) + x(1,2,27) + f(2,30) - f(2,31) = 0
 fluxo_maquina(2,32): x(2,2,22) + x(1,2,28) + f(2,31) - f(2,32) = 0
 fluxo_maquina(2,33): f(2,32) - f(2,33) = 0
 fluxo_maquina(2,34): f(2,33) - f(2,34) = 0
 fluxo_maquina(2,35): f(2,34) - f(2,35) = 0
 fluxo_maquina(2,36): f(2,35) - f(2,36) = 0
 fluxo_maquina(2,37): f(2,36) - f(2,37) = 0
 fluxo_maquina(2,38): f(2,37) - f(2,38) = 0
 fluxo_maquina(2,39): f(2,38) - f(2,39) = 0
 fluxo_maquina(2,40): f(2,39) - f(2,40) = 0
 fluxo_maquina(3,1): - x(1,3,1) - x(3,3,1) + f(3,0) - f(3,1) = 0
 fluxo_maquina(3,2): - x(1,3,2) - x(3,3,2) + f(3,1) - f(3,2) = 0
 fluxo_maquina(3,3): - x(1,3,3) - x(3,3,3) + f(3,2) - f(3,3) = 0
 fluxo_maquina(3,4): - x(1,3,4) - x(3,3,4) + f(3,3) - f(3,4) = 0
 fluxo_maquina(3,5): x(1,3,0) - x(1,3,5) - x(3,3,5) + f(3,4) - f(3,5) = 0
 fluxo_maquina(3,6): x(1,3,1) - x(1,3,6) - x(3,3,6) + f(3,5) - f(3,6) = 0
 fluxo_maquina(3,7): x(3,3,0) + x(1,3,2) - x(1,3,7) - x(3,3,7) + f(3,6)
   - f(3,7) = 0
 fluxo_maquina(3,8): x(3,3,1) + x(1,3,3) - x(1,3,8) - x(3,3,8) + f(3,7)
   - f(3,8) = 0
 fluxo_maquina(3,9): x(3,3,2) + x(1,3,4) - x(1,3,9) - x(3,3,9) + f(3,8)
   - f(3,9) = 0
 fluxo_maquina(3,10): x(3,3,3) + x(1,3,5) - x(1,3,10) - x(3,3,10) + f(3,9)
   - f(3,10) = 0
 fluxo_maquina(3,11): x(3,3,4) + x(1,3,6) - x(1,3,11) - x(3,3,11) + f(3,10)
   - f(3,11) = 0
 fluxo_maquina(3,12): x(3,3,5) + x(1,3,7) - x(1,3,12) - x(3,3,12) + f(3,11)
   - f(3,12) - x(2,3,12) = 0
 fluxo_maquina(3,13): x(3,3,6) + x(1,3,8) - x(1,3,13) - x(3,3,13) + f(3,12)
   - f(3,13) - x(2,3,13) = 0
 fluxo_maquina(3,14): x(3,3,7) + x(1,3,9) - x(1,3,14) - x(3,3,14) + f(3,13)
   - f(3,14) - x(2,3,14) = 0
 fluxo_maquina(3,15): x(3,3,8) + x(1,3,10) - x(1,3,15) - x(3,3,15)
   + f(3,14) - f(3,15) - x(2,3,15) = 0
 fluxo_maquina(3,16): x(3,3,9) + x(1,3,11) - x(1,3,16) - x(3,3,16)
   + f(3,15) - f(3,16) - x(2,3,16) = 0
 fluxo_maquina(3,17): x(3,3,10) + x(1,3,12) - x(1,3,17) - x(3,3,17)
   + f(3,16) - f(3,17) - x(2,3,17) = 0
 fluxo_maquina(3,18): x(3,3,11) + x(1,3,13) - x(1,3,18) - x(3,3,18)
   + f(3,17) - f(3,18) - x(2,3,18) = 0
 fluxo_maquina(3,19): x(3,3,12) + x(1,3,14) - x(1,3,19) + f(3,18) - f(3,19)
   - x(2,3,19) = 0
 fluxo_maquina(3,20): x(3,3,13) + x(1,3,15) - x(1,3,20) + x(2,3,12)
   + f(3,19) - f(3,20) - x(2,3,20) = 0
 fluxo_maquina(3,21): x(3,3,14) + x(1,3,16) - x(1,3,21) + x(2,3,13)
   + f(3,20) - f(3,21) - x(2,3,21) = 0
 fluxo_maquina(3,22): x(3,3,15) + x(1,3,17) - x(1,3,22) + x(2,3,14)
   + f(3,21) - f(3,22) - x(2,3,22) = 0
 fluxo_maquina(3,23): x(3,3,16) + x(1,3,18) - x(1,3,23) + x(2,3,15)
   + f(3,22) - f(3,23) - x(2,3,23) = 0
 fluxo_maquina(3,24): x(3,3,17) + x(1,3,19) + x(2,3,16) + f(3,23) - f(3,24)
   - x(2,3,24) = 0
 fluxo_maquina(3,25): x(3,3,18) + x(1,3,20) + x(2,3,17) + f(3,24) - f(3,25)
   - x(2,3,25) = 0
 fluxo_maquina(3,26): x(1,3,21) + x(2,3,18) + f(3,25) - f(3,26) - x(2,3,26)
   = 0
 fluxo_maquina(3,27): x(1,3,22) + x(2,3,19) + f(3,26) - f(3,27) - x(2,3,27)
   = 0
 fluxo_maquina(3,28): x(1,3,23) + x(2,3,20) + f(3,27) - f(3,28) - x(2,3,28)
   = 0
 fluxo_maquina(3,29): x(2,3,21) + f(3,28) - f(3,29) - x(2,3,29) = 0
 fluxo_maquina(3,30): x(2,3,22) + f(3,29) - f(3,30) - x(2,3,30) = 0
 fluxo_maquina(3,31): x(2,3,23) + f(3,30) - f(3,31) - x(2,3,31) = 0
 fluxo_maquina(3,32): x(2,3,24) + f(3,31) - f(3,32) - x(2,3,32) = 0
 fluxo_maquina(3,33): x(2,3,25) + f(3,32) - f(3,33) = 0
 fluxo_maquina(3,34): x(2,3,26) + f(3,33) - f(3,34) = 0
 fluxo_maquina(3,35): x(2,3,27) + f(3,34) - f(3,35) = 0
 fluxo_maquina(3,36): x(2,3,28) + f(3,35) - f(3,36) = 0
 fluxo_maquina(3,37): x(2,3,29) + f(3,36) - f(3,37) = 0
 fluxo_maquina(3,38): x(2,3,30) + f(3,37) - f(3,38) = 0
 fluxo_maquina(3,39): x(2,3,31) + f(3,38) - f(3,39) = 0
 fluxo_maquina(3,40): x(2,3,32) + f(3,39) - f(3,40) = 0
 inicio_espera(m2,j1,t1): x(1,3,0) + e(1,3,0) = 1
 inicio_espera(m0,j2,t1): x(2,1,0) + e(2,1,0) = 1
 inicio_espera(m2,j3,t1): x(3,3,0) + e(3,3,0) = 1
 fluxo_espera(3,1,1): e(1,3,0) - x(1,3,1) - e(1,3,1) = 0
 fluxo_espera(3,1,2): e(1,3,1) - x(1,3,2) - e(1,3,2) = 0
 fluxo_espera(3,1,3): e(1,3,2) - x(1,3,3) - e(1,3,3) = 0
 fluxo_espera(3,1,4): e(1,3,3) - x(1,3,4) - e(1,3,4) = 0
 fluxo_espera(3,1,5): e(1,3,4) - x(1,3,5) - e(1,3,5) = 0
 fluxo_espera(3,1,6): e(1,3,5) - x(1,3,6) - e(1,3,6) = 0
 fluxo_espera(3,1,7): e(1,3,6) - x(1,3,7) - e(1,3,7) = 0
 fluxo_espera(3,1,8): e(1,3,7) - x(1,3,8) - e(1,3,8) = 0
 fluxo_espera(3,1,9): e(1,3,8) - x(1,3,9) - e(1,3,9) = 0
 fluxo_espera(3,1,10): e(1,3,9) - x(1,3,10) - e(1,3,10) = 0
 fluxo_espera(3,1,11): e(1,3,10) - x(1,3,11) - e(1,3,11) = 0
 fluxo_espera(3,1,12): e(1,3,11) - x(1,3,12) - e(1,3,12) = 0
 fluxo_espera(3,1,13): e(1,3,12) - x(1,3,13) - e(1,3,13) = 0
 fluxo_espera(3,1,14): e(1,3,13) - x(1,3,14) - e(1,3,14) = 0
 fluxo_espera(3,1,15): e(1,3,14) - x(1,3,15) - e(1,3,15) = 0
 fluxo_espera(3,1,16): e(1,3,15) - x(1,3,16) - e(1,3,16) = 0
 fluxo_espera(3,1,17): e(1,3,16) - x(1,3,17) - e(1,3,17) = 0
 fluxo_espera(3,1,18): e(1,3,17) - x(1,3,18) - e(1,3,18) = 0
 fluxo_espera(3,1,19): e(1,3,18) - x(1,3,19) - e(1,3,19) = 0
 fluxo_espera(3,1,20): e(1,3,19) - x(1,3,20) - e(1,3,20) = 0
 fluxo_espera(3,1,21): e(1,3,20) - x(1,3,21) - e(1,3,21) = 0
 fluxo_espera(3,1,22): e(1,3,21) - x(1,3,22) - e(1,3,22) = 0
 fluxo_espera(3,1,23): e(1,3,22) - x(1,3,23) - e(1,3,23) = 0
 fluxo_espera(1,2,1): e(2,1,0) - x(2,1,1) - e(2,1,1) = 0
 fluxo_espera(1,2,2): e(2,1,1) - x(2,1,2) - e(2,1,2) = 0
 fluxo_espera(1,2,3): e(2,1,2) - x(2,1,3) - e(2,1,3) = 0
 fluxo_espera(1,2,4): e(2,1,3) - x(2,1,4) - e(2,1,4) = 0
 fluxo_espera(1,2,5): e(2,1,4) - x(2,1,5) - e(2,1,5) = 0
 fluxo_espera(1,2,6): e(2,1,5) - x(2,1,6) - e(2,1,6) = 0
 fluxo_espera(1,2,7): e(2,1,6) - x(2,1,7) - e(2,1,7) = 0
 fluxo_espera(1,2,8): e(2,1,7) - x(2,1,8) - e(2,1,8) = 0
 fluxo_espera(1,2,9): e(2,1,8) - x(2,1,9) - e(2,1,9) = 0
 fluxo_espera(1,2,10): e(2,1,9) - x(2,1,10) - e(2,1,10) = 0
 fluxo_espera(1,2,11): e(2,1,10) - x(2,1,11) - e(2,1,11) = 0
 fluxo_espera(1,2,12): e(2,1,11) - x(2,1,12) - e(2,1,12) = 0
 fluxo_espera(1,2,13): e(2,1,12) - x(2,1,13) - e(2,1,13) = 0
 fluxo_espera(1,2,14): e(2,1,13) - x(2,1,14) - e(2,1,14) = 0
 fluxo_espera(1,2,15): e(2,1,14) - x(2,1,15) - e(2,1,15) = 0
 fluxo_espera(1,2,16): e(2,1,15) - x(2,1,16) - e(2,1,16) = 0
 fluxo_espera(1,2,17): e(2,1,16) - x(2,1,17) - e(2,1,17) = 0
 fluxo_espera(1,2,18): e(2,1,17) - x(2,1,18) - e(2,1,18) = 0
 fluxo_espera(1,2,19): e(2,1,18) - x(2,1,19) - e(2,1,19) = 0
 fluxo_espera(1,2,20): e(2,1,19) - x(2,1,20) - e(2,1,20) = 0
 fluxo_espera(3,3,1): e(3,3,0) - x(3,3,1) - e(3,3,1) = 0
 fluxo_espera(3,3,2): e(3,3,1) - x(3,3,2) - e(3,3,2) = 0
 fluxo_espera(3,3,3): e(3,3,2) - x(3,3,3) - e(3,3,3) = 0
 fluxo_espera(3,3,4): e(3,3,3) - x(3,3,4) - e(3,3,4) = 0
 fluxo_espera(3,3,5): e(3,3,4) - x(3,3,5) - e(3,3,5) = 0
 fluxo_espera(3,3,6): e(3,3,5) - x(3,3,6) - e(3,3,6) = 0
 fluxo_espera(3,3,7): e(3,3,6) - x(3,3,7) - e(3,3,7) = 0
 fluxo_espera(3,3,8): e(3,3,7) - x(3,3,8) - e(3,3,8) = 0
 fluxo_espera(3,3,9): e(3,3,8) - x(3,3,9) - e(3,3,9) = 0
 fluxo_espera(3,3,10): e(3,3,9) - x(3,3,10) - e(3,3,10) = 0
 fluxo_espera(3,3,11): e(3,3,10) - x(3,3,11) - e(3,3,11) = 0
 fluxo_espera(3,3,12): e(3,3,11) - x(3,3,12) - e(3,3,12) = 0
 fluxo_espera(3,3,13): e(3,3,12) - x(3,3,13) - e(3,3,13) = 0
 fluxo_espera(3,3,14): e(3,3,13) - x(3,3,14) - e(3,3,14) = 0
 fluxo_espera(3,3,15): e(3,3,14) - x(3,3,15) - e(3,3,15) = 0
 fluxo_espera(3,3,16): e(3,3,15) - x(3,3,16) - e(3,3,16) = 0
 fluxo_espera(3,3,17): e(3,3,16) - x(3,3,17) - e(3,3,17) = 0
 fluxo_espera(3,3,18): e(3,3,17) - x(3,3,18) - e(3,3,18) = 0
 fluxo_espera(2,1,5): x(1,3,0) - x(1,2,5) - e(1,2,5) = 0
 fluxo_espera(2,1,6): x(1,3,1) + e(1,2,5) - x(1,2,6) - e(1,2,6) = 0
 fluxo_espera(2,1,7): x(1,3,2) + e(1,2,6) - x(1,2,7) - e(1,2,7) = 0
 fluxo_espera(2,1,8): x(1,3,3) + e(1,2,7) - x(1,2,8) - e(1,2,8) = 0
 fluxo_espera(2,1,9): x(1,3,4) + e(1,2,8) - x(1,2,9) - e(1,2,9) = 0
 fluxo_espera(2,1,10): x(1,3,5) + e(1,2,9) - x(1,2,10) - e(1,2,10) = 0
 fluxo_espera(2,1,11): x(1,3,6) + e(1,2,10) - x(1,2,11) - e(1,2,11) = 0
 fluxo_espera(2,1,12): x(1,3,7) + e(1,2,11) - x(1,2,12) - e(1,2,12) = 0
 fluxo_espera(2,1,13): x(1,3,8) + e(1,2,12) - x(1,2,13) - e(1,2,13) = 0
 fluxo_espera(2,1,14): x(1,3,9) + e(1,2,13) - x(1,2,14) - e(1,2,14) = 0
 fluxo_espera(2,1,15): x(1,3,10) + e(1,2,14) - x(1,2,15) - e(1,2,15) = 0
 fluxo_espera(2,1,16): x(1,3,11) + e(1,2,15) - x(1,2,16) - e(1,2,16) = 0
 fluxo_espera(2,1,17): x(1,3,12) + e(1,2,16) - x(1,2,17) - e(1,2,17) = 0
 fluxo_espera(2,1,18): x(1,3,13) + e(1,2,17) - x(1,2,18) - e(1,2,18) = 0
 fluxo_espera(2,1,19): x(1,3,14) + e(1,2,18) - x(1,2,19) - e(1,2,19) = 0
 fluxo_espera(2,1,20): x(1,3,15) + e(1,2,19) - x(1,2,20) - e(1,2,20) = 0
 fluxo_espera(2,1,21): x(1,3,16) + e(1,2,20) - x(1,2,21) - e(1,2,21) = 0
 fluxo_espera(2,1,22): x(1,3,17) + e(1,2,21) - x(1,2,22) - e(1,2,22) = 0
 fluxo_espera(2,1,23): x(1,3,18) + e(1,2,22) - x(1,2,23) - e(1,2,23) = 0
 fluxo_espera(2,1,24): x(1,3,19) + e(1,2,23) - x(1,2,24) - e(1,2,24) = 0
 fluxo_espera(2,1,25): x(1,3,20) + e(1,2,24) - x(1,2,25) - e(1,2,25) = 0
 fluxo_espera(2,1,26): x(1,3,21) + e(1,2,25) - x(1,2,26) - e(1,2,26) = 0
 fluxo_espera(2,1,27): x(1,3,22) + e(1,2,26) - x(1,2,27) - e(1,2,27) = 0
 fluxo_espera(2,1,28): x(1,3,23) + e(1,2,27) - x(1,2,28) - e(1,2,28) = 0
 fluxo_espera(2,2,2): x(2,1,0) - x(2,2,2) - e(2,2,2) = 0
 fluxo_espera(2,2,3): x(2,1,1) + e(2,2,2) - x(2,2,3) - e(2,2,3) = 0
 fluxo_espera(2,2,4): x(2,1,2) + e(2,2,3) - x(2,2,4) - e(2,2,4) = 0
 fluxo_espera(2,2,5): x(2,1,3) + e(2,2,4) - x(2,2,5) - e(2,2,5) = 0
 fluxo_espera(2,2,6): x(2,1,4) + e(2,2,5) - x(2,2,6) - e(2,2,6) = 0
 fluxo_espera(2,2,7): x(2,1,5) + e(2,2,6) - x(2,2,7) - e(2,2,7) = 0
 fluxo_espera(2,2,8): x(2,1,6) + e(2,2,7) - x(2,2,8) - e(2,2,8) = 0
 fluxo_espera(2,2,9): x(2,1,7) + e(2,2,8) - x(2,2,9) - e(2,2,9) = 0
 fluxo_espera(2,2,10): x(2,1,8) + e(2,2,9) - x(2,2,10) - e(2,2,10) = 0
 fluxo_espera(2,2,11): x(2,1,9) + e(2,2,10) - x(2,2,11) - e(2,2,11) = 0
 fluxo_espera(2,2,12): x(2,1,10) + e(2,2,11) - x(2,2,12) - e(2,2,12) = 0
 fluxo_espera(2,2,13): x(2,1,11) + e(2,2,12) - x(2,2,13) - e(2,2,13) = 0
 fluxo_espera(2,2,14): x(2,1,12) + e(2,2,13) - x(2,2,14) - e(2,2,14) = 0
 fluxo_espera(2,2,15): x(2,1,13) + e(2,2,14) - x(2,2,15) - e(2,2,15) = 0
 fluxo_espera(2,2,16): x(2,1,14) + e(2,2,15) - x(2,2,16) - e(2,2,16) = 0
 fluxo_espera(2,2,17): x(2,1,15) + e(2,2,16) - x(2,2,17) - e(2,2,17) = 0
 fluxo_espera(2,2,18): x(2,1,16) + e(2,2,17) - x(2,2,18) - e(2,2,18) = 0
 fluxo_espera(2,2,19): x(2,1,17) + e(2,2,18) - x(2,2,19) - e(2,2,19) = 0
 fluxo_espera(2,2,20): x(2,1,18) + e(2,2,19) - x(2,2,20) - e(2,2,20) = 0
 fluxo_espera(2,2,21): x(2,1,19) + e(2,2,20) - x(2,2,21) - e(2,2,21) = 0
 fluxo_espera(2,2,22): x(2,1,20) + e(2,2,21) - x(2,2,22) - e(2,2,22) = 0
 fluxo_espera(2,3,7): x(3,3,0) - x(3,2,7) - e(3,2,7) = 0
 fluxo_espera(2,3,8): x(3,3,1) + e(3,2,7) - x(3,2,8) - e(3,2,8) = 0
 fluxo_espera(2,3,9): x(3,3,2) + e(3,2,8) - x(3,2,9) - e(3,2,9) = 0
 fluxo_espera(2,3,10): x(3,3,3) + e(3,2,9) - x(3,2,10) - e(3,2,10) = 0
 fluxo_espera(2,3,11): x(3,3,4) + e(3,2,10) - x(3,2,11) - e(3,2,11) = 0
 fluxo_espera(2,3,12): x(3,3,5) + e(3,2,11) - x(3,2,12) - e(3,2,12) = 0
 fluxo_espera(2,3,13): x(3,3,6) + e(3,2,12) - x(3,2,13) - e(3,2,13) = 0
 fluxo_espera(2,3,14): x(3,3,7) + e(3,2,13) - x(3,2,14) - e(3,2,14) = 0
 fluxo_espera(2,3,15): x(3,3,8) + e(3,2,14) - x(3,2,15) - e(3,2,15) = 0
 fluxo_espera(2,3,16): x(3,3,9) + e(3,2,15) - x(3,2,16) - e(3,2,16) = 0
 fluxo_espera(2,3,17): x(3,3,10) + e(3,2,16) - x(3,2,17) - e(3,2,17) = 0
 fluxo_espera(2,3,18): x(3,3,11) + e(3,2,17) - x(3,2,18) - e(3,2,18) = 0
 fluxo_espera(2,3,19): x(3,3,12) + e(3,2,18) - x(3,2,19) - e(3,2,19) = 0
 fluxo_espera(2,3,20): x(3,3,13) + e(3,2,19) - x(3,2,20) - e(3,2,20) = 0
 fluxo_espera(2,3,21): x(3,3,14) + e(3,2,20) - x(3,2,21) - e(3,2,21) = 0
 fluxo_espera(2,3,22): x(3,3,15) + e(3,2,21) - x(3,2,22) - e(3,2,22) = 0
 fluxo_espera(2,3,23): x(3,3,16) + e(3,2,22) - x(3,2,23) - e(3,2,23) = 0
 fluxo_espera(2,3,24): x(3,3,17) + e(3,2,23) - x(3,2,24) - e(3,2,24) = 0
 fluxo_espera(2,3,25): x(3,3,18) + e(3,2,24) - x(3,2,25) - e(3,2,25) = 0
 fluxo_espera(1,1,9): x(1,2,5) - x(1,1,9) - e(1,1,9) = 0
 fluxo_espera(1,1,10): x(1,2,6) + e(1,1,9) - x(1,1,10) - e(1,1,10) = 0
 fluxo_espera(1,1,11): x(1,2,7) + e(1,1,10) - x(1,1,11) - e(1,1,11) = 0
 fluxo_espera(1,1,12): x(1,2,8) + e(1,1,11) - x(1,1,12) - e(1,1,12) = 0
 fluxo_espera(1,1,13): x(1,2,9) + e(1,1,12) - x(1,1,13) - e(1,1,13) = 0
 fluxo_espera(1,1,14): x(1,2,10) + e(1,1,13) - x(1,1,14) - e(1,1,14) = 0
 fluxo_espera(1,1,15): x(1,2,11) + e(1,1,14) - x(1,1,15) - e(1,1,15) = 0
 fluxo_espera(1,1,16): x(1,2,12) + e(1,1,15) - x(1,1,16) - e(1,1,16) = 0
 fluxo_espera(1,1,17): x(1,2,13) + e(1,1,16) - x(1,1,17) - e(1,1,17) = 0
 fluxo_espera(1,1,18): x(1,2,14) + e(1,1,17) - x(1,1,18) - e(1,1,18) = 0
 fluxo_espera(1,1,19): x(1,2,15) + e(1,1,18) - x(1,1,19) - e(1,1,19) = 0
 fluxo_espera(1,1,20): x(1,2,16) + e(1,1,19) - x(1,1,20) - e(1,1,20) = 0
 fluxo_espera(1,1,21): x(1,2,17) + e(1,1,20) - x(1,1,21) - e(1,1,21) = 0
 fluxo_espera(1,1,22): x(1,2,18) + e(1,1,21) - x(1,1,22) - e(1,1,22) = 0
 fluxo_espera(1,1,23): x(1,2,19) + e(1,1,22) - x(1,1,23) - e(1,1,23) = 0
 fluxo_espera(1,1,24): x(1,2,20) + e(1,1,23) - x(1,1,24) - e(1,1,24) = 0
 fluxo_espera(1,1,25): x(1,2,21) + e(1,1,24) - x(1,1,25) - e(1,1,25) = 0
 fluxo_espera(1,1,26): x(1,2,22) + e(1,1,25) - x(1,1,26) - e(1,1,26) = 0
 fluxo_espera(1,1,27): x(1,2,23) + e(1,1,26) - x(1,1,27) - e(1,1,27) = 0
 fluxo_espera(1,1,28): x(1,2,24) + e(1,1,27) - x(1,1,28) - e(1,1,28) = 0
 fluxo_espera(1,1,29): x(1,2,25) + e(1,1,28) - x(1,1,29) - e(1,1,29) = 0
 fluxo_espera(1,1,30): x(1,2,26) + e(1,1,29) - x(1,1,30) - e(1,1,30) = 0
 fluxo_espera(1,1,31): x(1,2,27) + e(1,1,30) - x(1,1,31) - e(1,1,31) = 0
 fluxo_espera(1,1,32): x(1,2,28) + e(1,1,31) - x(1,1,32) - e(1,1,32) = 0
 fluxo_espera(3,2,12): x(2,2,2) - x(2,3,12) - e(2,3,12) = 0
 fluxo_espera(3,2,13): x(2,2,3) + e(2,3,12) - x(2,3,13) - e(2,3,13) = 0
 fluxo_espera(3,2,14): x(2,2,4) + e(2,3,13) - x(2,3,14) - e(2,3,14) = 0
 fluxo_espera(3,2,15): x(2,2,5) + e(2,3,14) - x(2,3,15) - e(2,3,15) = 0
 fluxo_espera(3,2,16): x(2,2,6) + e(2,3,15) - x(2,3,16) - e(2,3,16) = 0
 fluxo_espera(3,2,17): x(2,2,7) + e(2,3,16) - x(2,3,17) - e(2,3,17) = 0
 fluxo_espera(3,2,18): x(2,2,8) + e(2,3,17) - x(2,3,18) - e(2,3,18) = 0
 fluxo_espera(3,2,19): x(2,2,9) + e(2,3,18) - x(2,3,19) - e(2,3,19) = 0
 fluxo_espera(3,2,20): x(2,2,10) + e(2,3,19) - x(2,3,20) - e(2,3,20) = 0
 fluxo_espera(3,2,21): x(2,2,11) + e(2,3,20) - x(2,3,21) - e(2,3,21) = 0
 fluxo_espera(3,2,22): x(2,2,12) + e(2,3,21) - x(2,3,22) - e(2,3,22) = 0
 fluxo_espera(3,2,23): x(2,2,13) + e(2,3,22) - x(2,3,23) - e(2,3,23) = 0
 fluxo_espera(3,2,24): x(2,2,14) + e(2,3,23) - x(2,3,24) - e(2,3,24) = 0
 fluxo_espera(3,2,25): x(2,2,15) + e(2,3,24) - x(2,3,25) - e(2,3,25) = 0
 fluxo_espera(3,2,26): x(2,2,16) + e(2,3,25) - x(2,3,26) - e(2,3,26) = 0
 fluxo_espera(3,2,27): x(2,2,17) + e(2,3,26) - x(2,3,27) - e(2,3,27) = 0
 fluxo_espera(3,2,28): x(2,2,18) + e(2,3,27) - x(2,3,28) - e(2,3,28) = 0
 fluxo_espera(3,2,29): x(2,2,19) + e(2,3,28) - x(2,3,29) - e(2,3,29) = 0
 fluxo_espera(3,2,30): x(2,2,20) + e(2,3,29) - x(2,3,30) - e(2,3,30) = 0
 fluxo_espera(3,2,31): x(2,2,21) + e(2,3,30) - x(2,3,31) - e(2,3,31) = 0
 fluxo_espera(3,2,32): x(2,2,22) + e(2,3,31) - x(2,3,32) - e(2,3,32) = 0
 fluxo_espera(1,3,12): x(3,2,7) - x(3,1,12) - e(3,1,12) = 0
 fluxo_espera(1,3,13): x(3,2,8) + e(3,1,12) - x(3,1,13) - e(3,1,13) = 0
 fluxo_espera(1,3,14): x(3,2,9) + e(3,1,13) - x(3,1,14) - e(3,1,14) = 0
 fluxo_espera(1,3,15): x(3,2,10) + e(3,1,14) - x(3,1,15) - e(3,1,15) = 0
 fluxo_espera(1,3,16): x(3,2,11) + e(3,1,15) - x(3,1,16) - e(3,1,16) = 0
 fluxo_espera(1,3,17): x(3,2,12) + e(3,1,16) - x(3,1,17) - e(3,1,17) = 0
 fluxo_espera(1,3,18): x(3,2,13) + e(3,1,17) - x(3,1,18) - e(3,1,18) = 0
 fluxo_espera(1,3,19): x(3,2,14) + e(3,1,18) - x(3,1,19) - e(3,1,19) = 0
 fluxo_espera(1,3,20): x(3,2,15) + e(3,1,19) - x(3,1,20) - e(3,1,20) = 0
 fluxo_espera(1,3,21): x(3,2,16) + e(3,1,20) - x(3,1,21) - e(3,1,21) = 0
 fluxo_espera(1,3,22): x(3,2,17) + e(3,1,21) - x(3,1,22) - e(3,1,22) = 0
 fluxo_espera(1,3,23): x(3,2,18) + e(3,1,22) - x(3,1,23) - e(3,1,23) = 0
 fluxo_espera(1,3,24): x(3,2,19) + e(3,1,23) - x(3,1,24) - e(3,1,24) = 0
 fluxo_espera(1,3,25): x(3,2,20) + e(3,1,24) - x(3,1,25) - e(3,1,25) = 0
 fluxo_espera(1,3,26): x(3,2,21) + e(3,1,25) - x(3,1,26) - e(3,1,26) = 0
 fluxo_espera(1,3,27): x(3,2,22) + e(3,1,26) - x(3,1,27) - e(3,1,27) = 0
 fluxo_espera(1,3,28): x(3,2,23) + e(3,1,27) - x(3,1,28) - e(3,1,28) = 0
 fluxo_espera(1,3,29): x(3,2,24) + e(3,1,28) - x(3,1,29) - e(3,1,29) = 0
 fluxo_espera(1,3,30): x(3,2,25) + e(3,1,29) - x(3,1,30) - e(3,1,30) = 0
 ultimo_tempo(3,1): e(1,3,22) - x(1,3,23) = 0
 ultimo_tempo(1,2): e(2,1,19) - x(2,1,20) = 0
 ultimo_tempo(3,3): e(3,3,17) - x(3,3,18) = 0
 ultimo_tempo(2,1): x(1,3,23) + e(1,2,27) - x(1,2,28) = 0
 ultimo_tempo(2,2): x(2,1,20) + e(2,2,21) - x(2,2,22) = 0
 ultimo_tempo(2,3): x(3,3,18) + e(3,2,24) - x(3,2,25) = 0
 ultimo_tempo(1,1): x(1,2,28) + e(1,1,31) - x(1,1,32) = 0
 ultimo_tempo(3,2): x(2,2,22) + e(2,3,31) - x(2,3,32) = 0
 ultimo_tempo(1,3): x(3,2,25) + e(3,1,29) - x(3,1,30) = 0
 fim(1): - 17 x(1,1,9) - 18 x(1,1,10) - 19 x(1,1,11) - 20 x(1,1,12)
   - 21 x(1,1,13) - 22 x(1,1,14) - 23 x(1,1,15) - 24 x(1,1,16)
   - 25 x(1,1,17) - 26 x(1,1,18) - 27 x(1,1,19) - 28 x(1,1,20)
   - 29 x(1,1,21) - 30 x(1,1,22) - 31 x(1,1,23) - 32 x(1,1,24)
   - 33 x(1,1,25) - 34 x(1,1,26) - 35 x(1,1,27) - 36 x(1,1,28)
   - 37 x(1,1,29) - 38 x(1,1,30) - 39 x(1,1,31) - 40 x(1,1,32) + C >= 0
 fim(2): - 20 x(2,3,12) - 21 x(2,3,13) - 22 x(2,3,14) - 23 x(2,3,15)
   - 24 x(2,3,16) - 25 x(2,3,17) - 26 x(2,3,18) - 27 x(2,3,19)
   - 28 x(2,3,20) - 29 x(2,3,21) - 30 x(2,3,22) - 31 x(2,3,23)
   - 32 x(2,3,24) - 33 x(2,3,25) - 34 x(2,3,26) - 35 x(2,3,27)
   - 36 x(2,3,28) - 37 x(2,3,29) - 38 x(2,3,30) - 39 x(2,3,31)
   - 40 x(2,3,32) + C >= 0
 fim(3): - 22 x(3,1,12) - 23 x(3,1,13) - 24 x(3,1,14) - 25 x(3,1,15)
   - 26 x(3,1,16) - 27 x(3,1,17) - 28 x(3,1,18) - 29 x(3,1,19)
   - 30 x(3,1,20) - 31 x(3,1,21) - 32 x(3,1,22) - 33 x(3,1,23)
   - 34 x(3,1,24) - 35 x(3,1,25) - 36 x(3,1,26) - 37 x(3,1,27)
   - 38 x(3,1,28) - 39 x(3,1,29) - 40 x(3,1,30) + C >= 0
Bounds
 C <= 40
Binaries
 f(1,0) x(1,3,0) e(1,3,0) x(2,1,0) e(2,1,0) x(3,3,0) e(3,3,0) f(1,1)
 x(1,3,1) e(1,3,1) x(2,1,1) e(2,1,1) x(3,3,1) e(3,3,1) f(1,2) x(1,3,2)
 e(1,3,2) x(2,1,2) e(2,1,2) x(3,3,2) e(3,3,2) f(1,3) x(1,3,3) e(1,3,3)
 x(2,1,3) e(2,1,3) x(3,3,3) e(3,3,3) f(1,4) x(1,3,4) e(1,3,4) x(2,1,4)
 e(2,1,4) x(3,3,4) e(3,3,4) f(1,5) x(1,3,5) e(1,3,5) x(2,1,5) e(2,1,5)
 x(3,3,5) e(3,3,5) f(1,6) x(1,3,6) e(1,3,6) x(2,1,6) e(2,1,6) x(3,3,6)
 e(3,3,6) f(1,7) x(1,3,7) e(1,3,7) x(2,1,7) e(2,1,7) x(3,3,7) e(3,3,7)
 f(1,8) x(1,3,8) e(1,3,8) x(2,1,8) e(2,1,8) x(3,3,8) e(3,3,8) f(1,9)
 x(1,3,9) e(1,3,9) x(2,1,9) e(2,1,9) x(3,3,9) e(3,3,9) f(1,10) x(1,3,10)
 e(1,3,10) x(2,1,10) e(2,1,10) x(3,3,10) e(3,3,10) f(1,11) x(1,3,11)
 e(1,3,11) x(2,1,11) e(2,1,11) x(3,3,11) e(3,3,11) f(1,12) x(1,3,12)
 e(1,3,12) x(2,1,12) e(2,1,12) x(3,3,12) e(3,3,12) f(1,13) x(1,3,13)
 e(1,3,13) x(2,1,13) e(2,1,13) x(3,3,13) e(3,3,13) f(1,14) x(1,3,14)
 e(1,3,14) x(2,1,14) e(2,1,14) x(3,3,14) e(3,3,14) f(1,15) x(1,3,15)
 e(1,3,15) x(2,1,15) e(2,1,15) x(3,3,15) e(3,3,15) f(1,16) x(1,3,16)
 e(1,3,16) x(2,1,16) e(2,1,16) x(3,3,16) e(3,3,16) f(1,17) x(1,3,17)
 e(1,3,17) x(2,1,17) e(2,1,17) x(3,3,17) e(3,3,17) f(1,18) x(1,3,18)
 e(1,3,18) x(2,1,18) e(2,1,18) x(3,3,18) e(3,3,18) f(1,19) x(1,3,19)
 e(1,3,19) x(2,1,19) e(2,1,19) f(1,20) x(1,3,20) e(1,3,20) x(2,1,20)
 e(2,1,20) f(1,21) x(1,3,21) e(1,3,21) f(1,22) x(1,3,22) e(1,3,22) f(1,23)
 x(1,3,23) e(1,3,23) f(1,24) f(1,25) f(1,26) f(1,27) f(1,28) f(1,29)
 f(1,30) f(1,31) f(1,32) f(1,33) f(1,34) f(1,35) f(1,36) f(1,37) f(1,38)
 f(1,39) f(1,40) f(2,0) f(2,1) f(2,2) x(2,2,2) e(2,2,2) f(2,3) x(2,2,3)
 e(2,2,3) f(2,4) x(2,2,4) e(2,2,4) f(2,5) x(1,2,5) e(1,2,5) x(2,2,5)
 e(2,2,5) f(2,6) x(1,2,6) e(1,2,6) x(2,2,6) e(2,2,6) f(2,7) x(1,2,7)
 e(1,2,7) x(2,2,7) e(2,2,7) x(3,2,7) e(3,2,7) f(2,8) x(1,2,8) e(1,2,8)
 x(2,2,8) e(2,2,8) x(3,2,8) e(3,2,8) f(2,9) x(1,2,9) e(1,2,9) x(2,2,9)
 e(2,2,9) x(3,2,9) e(3,2,9) f(2,10) x(1,2,10) e(1,2,10) x(2,2,10) e(2,2,10)
 x(3,2,10) e(3,2,10) f(2,11) x(1,2,11) e(1,2,11) x(2,2,11) e(2,2,11)
 x(3,2,11) e(3,2,11) f(2,12) x(1,2,12) e(1,2,12) x(2,2,12) e(2,2,12)
 x(3,2,12) e(3,2,12) f(2,13) x(1,2,13) e(1,2,13) x(2,2,13) e(2,2,13)
 x(3,2,13) e(3,2,13) f(2,14) x(1,2,14) e(1,2,14) x(2,2,14) e(2,2,14)
 x(3,2,14) e(3,2,14) f(2,15) x(1,2,15) e(1,2,15) x(2,2,15) e(2,2,15)
 x(3,2,15) e(3,2,15) f(2,16) x(1,2,16) e(1,2,16) x(2,2,16) e(2,2,16)
 x(3,2,16) e(3,2,16) f(2,17) x(1,2,17) e(1,2,17) x(2,2,17) e(2,2,17)
 x(3,2,17) e(3,2,17) f(2,18) x(1,2,18) e(1,2,18) x(2,2,18) e(2,2,18)
 x(3,2,18) e(3,2,18) f(2,19) x(1,2,19) e(1,2,19) x(2,2,19) e(2,2,19)
 x(3,2,19) e(3,2,19) f(2,20) x(1,2,20) e(1,2,20) x(2,2,20) e(2,2,20)
 x(3,2,20) e(3,2,20) f(2,21) x(1,2,21) e(1,2,21) x(2,2,21) e(2,2,21)
 x(3,2,21) e(3,2,21) f(2,22) x(1,2,22) e(1,2,22) x(2,2,22) e(2,2,22)
 x(3,2,22) e(3,2,22) f(2,23) x(1,2,23) e(1,2,23) x(3,2,23) e(3,2,23)
 f(2,24) x(1,2,24) e(1,2,24) x(3,2,24) e(3,2,24) f(2,25) x(1,2,25)
 e(1,2,25) x(3,2,25) e(3,2,25) f(2,26) x(1,2,26) e(1,2,26) f(2,27)
 x(1,2,27) e(1,2,27) f(2,28) x(1,2,28) e(1,2,28) f(2,29) f(2,30) f(2,31)
 f(2,32) f(2,33) f(2,34) f(2,35) f(2,36) f(2,37) f(2,38) f(2,39) f(2,40)
 f(3,0) f(3,1) f(3,2) f(3,3) f(3,4) f(3,5) f(3,6) f(3,7) f(3,8) f(3,9)
 x(1,1,9) e(1,1,9) f(3,10) x(1,1,10) e(1,1,10) f(3,11) x(1,1,11) e(1,1,11)
 f(3,12) x(1,1,12) e(1,1,12) x(2,3,12) e(2,3,12) x(3,1,12) e(3,1,12)
 f(3,13) x(1,1,13) e(1,1,13) x(2,3,13) e(2,3,13) x(3,1,13) e(3,1,13)
 f(3,14) x(1,1,14) e(1,1,14) x(2,3,14) e(2,3,14) x(3,1,14) e(3,1,14)
 f(3,15) x(1,1,15) e(1,1,15) x(2,3,15) e(2,3,15) x(3,1,15) e(3,1,15)
 f(3,16) x(1,1,16) e(1,1,16) x(2,3,16) e(2,3,16) x(3,1,16) e(3,1,16)
 f(3,17) x(1,1,17) e(1,1,17) x(2,3,17) e(2,3,17) x(3,1,17) e(3,1,17)
 f(3,18) x(1,1,18) e(1,1,18) x(2,3,18) e(2,3,18) x(3,1,18) e(3,1,18)
 f(3,19) x(1,1,19) e(1,1,19) x(2,3,19) e(2,3,19) x(3,1,19) e(3,1,19)
 f(3,20) x(1,1,20) e(1,1,20) x(2,3,20) e(2,3,20) x(3,1,20) e(3,1,20)
 f(3,21) x(1,1,21) e(1,1,21) x(2,3,21) e(2,3,21) x(3,1,21) e(3,1,21)
 f(3,22) x(1,1,22) e(1,1,22) x(2,3,22) e(2,3,22) x(3,1,22) e(3,1,22)
 f(3,23) x(1,1,23) e(1,1,23) x(2,3,23) e(2,3,23) x(3,1,23) e(3,1,23)
 f(3,24) x(1,1,24) e(1,1,24) x(2,3,24) e(2,3,24) x(3,1,24) e(3,1,24)
 f(3,25) x(1,1,25) e(1,1,25) x(2,3,25) e(2,3,25) x(3,1,25) e(3,1,25)
 f(3,26) x(1,1,26) e(1,1,26) x(2,3,26) e(2,3,26) x(3,1,26) e(3,1,26)
 f(3,27) x(1,1,27) e(1,1,27) x(2,3,27) e(2,3,27) x(3,1,27) e(3,1,27)
 f(3,28) x(1,1,28) e(1,1,28) x(2,3,28) e(2,3,28) x(3,1,28) e(3,1,28)
 f(3,29) x(1,1,29) e(1,1,29) x(2,3,29) e(2,3,29) x(3,1,29) e(3,1,29)
 f(3,30) x(1,1,30) e(1,1,30) x(2,3,30) e(2,3,30) x(3,1,30) e(3,1,30)
 f(3,31) x(1,1,31) e(1,1,31) x(2,3,31) e(2,3,31) f(3,32) x(1,1,32)
 e(1,1,32) x(2,3,32) e(2,3,32) f(3,33) f(3,34) f(3,35) f(3,36) f(3,37)
 f(3,38) f(3,39) f(3,40)
Generals
 C
End
